118
119
120
121
122
123
124
100
99
98
97
96
95
94
93
92
80
79
78
77
66
60
58
57
44
45
17
16
9
10
11
12
13
14
15
47
46
18
19
20
21
22
25
24
26
36
35
29
28
27
7
8
1
2
3
4
5
6
32
31
30
34
33
59
61
62
65
63
64
68
69
70
71
72
73
74
75
76
81
82
84
83
67
56
55
37
38
23
39
40
41
42
43
54
88
89
104
105
106
107
108
109
110
111
112
113
114
103
102
90
86
87
53
52
48
49
50
51
85
91
101
115
116
117
118
